50

100 29 176
97 14 255
96 24 180
92 2 283
89 24 193
86 11 326
83 16 171
83 12 267
82 0 283
79 17 301
77 24 254
76 15 155
73 11 305
73 1 333
70 8 212
69 6 325
69 3 225
61 4 174
60 7 257
60 18 206
60 12 354
58 3 353
56 12 158
56 7 202
53 7 357
51 16 288
49 2 345
48 0 233
48 0 245
48 13 328
47 13 323
46 7 360
42 11 313
41 5 177
36 6 187
35 3 231
34 11 306
32 9 179
32 3 154
32 9 317
31 7 251
22 2 190
17 4 199
12 2 359
12 0 294
6 0 337
6 0 333
5 1 228
3 1 332
2 1 322
